(set-info :smt-lib-version 2.6)
(set-logic QF_LRA)
(set-info :source | TTA Startup. Bruno Dutertre (bruno@csl.sri.com) |)
(set-info :category "industrial")
(set-info :status unsat)
(declare-fun x_0 () Real)
(declare-fun x_1 () Real)
(declare-fun x_2 () Real)
(declare-fun x_3 () Real)
(declare-fun x_4 () Real)
(declare-fun x_5 () Real)
(declare-fun x_6 () Real)
(declare-fun x_7 () Real)
(declare-fun x_8 () Real)
(declare-fun x_9 () Real)
(declare-fun x_10 () Real)
(declare-fun x_11 () Bool)
(declare-fun x_12 () Bool)
(declare-fun x_13 () Bool)
(declare-fun x_14 () Bool)
(declare-fun x_15 () Bool)
(declare-fun x_16 () Real)
(declare-fun x_17 () Bool)
(declare-fun x_18 () Bool)
(declare-fun x_19 () Bool)
(declare-fun x_20 () Real)
(declare-fun x_21 () Real)
(declare-fun x_22 () Real)
(declare-fun x_23 () Real)
(declare-fun x_24 () Real)
(declare-fun x_25 () Real)
(declare-fun x_26 () Real)
(declare-fun x_27 () Real)
(declare-fun x_28 () Real)
(declare-fun x_29 () Real)
(declare-fun x_30 () Real)
(declare-fun x_31 () Real)
(declare-fun x_32 () Real)
(declare-fun x_33 () Real)
(declare-fun x_34 () Real)
(declare-fun x_35 () Real)
(declare-fun x_36 () Real)
(declare-fun x_37 () Real)
(declare-fun x_38 () Real)
(declare-fun x_39 () Real)
(declare-fun x_40 () Real)
(declare-fun x_41 () Real)
(declare-fun x_42 () Real)
(declare-fun x_43 () Real)
(declare-fun x_44 () Real)
(declare-fun x_45 () Real)
(declare-fun x_46 () Real)
(declare-fun x_47 () Real)
(declare-fun x_48 () Real)
(declare-fun x_49 () Real)
(declare-fun x_50 () Real)
(declare-fun x_51 () Real)
(declare-fun x_52 () Real)
(declare-fun x_53 () Bool)
(declare-fun x_54 () Real)
(declare-fun x_55 () Bool)
(declare-fun x_56 () Bool)
(declare-fun x_57 () Bool)
(declare-fun x_58 () Bool)
(declare-fun x_59 () Real)
(declare-fun x_60 () Real)
(declare-fun x_61 () Real)
(declare-fun x_62 () Real)
(declare-fun x_63 () Real)
(declare-fun x_64 () Real)
(declare-fun x_65 () Real)
(declare-fun x_66 () Real)
(declare-fun x_67 () Real)
(declare-fun x_68 () Real)
(declare-fun x_69 () Real)
(declare-fun x_70 () Real)
(declare-fun x_71 () Real)
(assert (let ((?v_120 (= x_0 2)) (?v_161 (= x_1 2)) (?v_183 (= x_2 2)) (?v_203 (= x_3 2)) (?v_223 (= x_4 2)) (?v_99 (= x_0 0)) (?v_115 (= x_0 1)) (?v_150 (= x_1 0)) (?v_157 (= x_1 1)) (?v_173 (= x_2 0)) (?v_180 (= x_2 1)) (?v_193 (= x_3 0)) (?v_200 (= x_3 1)) (?v_213 (= x_4 0)) (?v_220 (= x_4 1)) (?v_137 (= x_0 3)) (?v_172 (= x_1 3)) (?v_192 (= x_2 3)) (?v_212 (= x_3 3)) (?v_232 (= x_4 3)) (?v_119 (= x_10 0)) (?v_1 (= x_16 5)) (?v_2 (= x_16 4)) (?v_3 (= x_16 3)) (?v_4 (= x_16 2)) (?v_81 (not x_11)) (?v_82 (not x_12)) (?v_83 (not x_13)) (?v_84 (not x_14)) (?v_85 (not x_15)) (?v_113 (= x_34 2))) (let ((?v_241 (not ?v_113)) (?v_154 (= x_35 2))) (let ((?v_242 (not ?v_154)) (?v_177 (= x_36 2))) (let ((?v_243 (not ?v_177)) (?v_197 (= x_37 2))) (let ((?v_244 (not ?v_197)) (?v_217 (= x_38 2))) (let ((?v_245 (not ?v_217)) (?v_283 (not (< x_39 (+ x_40 30)))) (?v_285 (not (< x_41 (+ x_40 33)))) (?v_287 (not (< x_42 (+ x_40 36)))) (?v_289 (not (< x_43 (+ x_40 39)))) (?v_291 (not (< x_44 (+ x_40 42)))) (?v_100 (= x_34 1)) (?v_151 (= x_35 1)) (?v_174 (= x_36 1)) (?v_194 (= x_37 1)) (?v_214 (= x_38 1))) (let ((?v_246 (not ?v_100)) (?v_247 (not ?v_151)) (?v_248 (not ?v_174)) (?v_249 (not ?v_194)) (?v_250 (not ?v_214)) (?v_48 (= x_45 x_46)) (?v_51 (= x_45 x_47)) (?v_53 (= x_48 x_49)) (?v_54 (= x_48 x_45)) (?v_55 (= x_48 x_46)) (?v_56 (= x_48 x_47)) (?v_57 (= x_46 x_49)) (?v_58 (= x_46 x_45)) (?v_59 (= x_46 x_48)) (?v_60 (= x_46 x_47)) (?v_61 (= x_47 x_49)) (?v_62 (= x_47 x_45)) (?v_63 (= x_47 x_48)) (?v_64 (= x_47 x_46)) (?v_27 (not (< x_33 x_39))) (?v_299 (= x_49 x_51)) (?v_40 (not (< x_33 x_41))) (?v_301 (= x_45 x_51)) (?v_44 (not (< x_33 x_42))) (?v_303 (= x_48 x_51)) (?v_47 (not (< x_33 x_43))) (?v_305 (= x_46 x_51)) (?v_50 (not (< x_33 x_44))) (?v_307 (= x_47 x_51)) (?v_19 (= x_34 3))) (let ((?v_25 (not ?v_19)) (?v_28 (not (= x_33 x_39))) (?v_20 (= x_35 3))) (let ((?v_26 (not ?v_20)) (?v_30 (not (= x_33 x_41))) (?v_22 (= x_36 3))) (let ((?v_31 (not ?v_22)) (?v_33 (not (= x_33 x_42))) (?v_23 (= x_37 3))) (let ((?v_34 (not ?v_23)) (?v_36 (not (= x_33 x_43))) (?v_24 (= x_38 3))) (let ((?v_37 (not ?v_24)) (?v_39 (not (= x_33 x_44))) (?v_264 (not (<= (- x_41 x_39) x_26))) (?v_265 (not (<= (- x_42 x_39) x_26))) (?v_266 (not (<= (- x_43 x_39) x_26))) (?v_267 (not (<= (- x_44 x_39) x_26))) (?v_268 (not (<= (- x_42 x_41) x_26))) (?v_269 (not (<= (- x_43 x_41) x_26))) (?v_270 (not (<= (- x_44 x_41) x_26))) (?v_271 (not (<= (- x_43 x_42) x_26))) (?v_272 (not (<= (- x_44 x_42) x_26))) (?v_273 (not (<= (- x_44 x_43) x_26))) (?v_277 (not (< (- x_39 x_40) 15))) (?v_259 (<= (- x_39 x_33) 15)) (?v_278 (not (< (- x_41 x_40) 18))) (?v_260 (<= (- x_41 x_33) 18)) (?v_279 (not (< (- x_42 x_40) 21))) (?v_261 (<= (- x_42 x_33) 21)) (?v_280 (not (< (- x_43 x_40) 24))) (?v_262 (<= (- x_43 x_33) 24)) (?v_281 (not (< (- x_44 x_40) 27))) (?v_263 (<= (- x_44 x_33) 27)) (?v_29 (= x_49 x_45)) (?v_32 (= x_49 x_48)) (?v_35 (= x_49 x_46)) (?v_38 (= x_49 x_47)) (?v_41 (= x_45 x_49)) (?v_45 (= x_45 x_48)) (?v_282 (and x_53 (< x_54 x_39))) (?v_284 (and x_55 (< x_54 x_41))) (?v_286 (and x_56 (< x_54 x_42))) (?v_288 (and x_57 (< x_54 x_43))) (?v_290 (and x_58 (< x_54 x_44))) (?v_65 (< x_49 1)) (?v_296 (or (or (or (or x_53 x_55) x_56) x_57) x_58)) (?v_10 (= x_51 5)) (?v_11 (= x_51 4)) (?v_12 (= x_51 3)) (?v_13 (= x_51 2))) (let ((?v_297 (ite ?v_10 x_44 (ite ?v_11 x_43 (ite ?v_12 x_42 (ite ?v_13 x_41 x_39))))) (?v_130 (not x_53)) (?v_170 (not x_55)) (?v_190 (not x_56)) (?v_210 (not x_57)) (?v_230 (not x_58)) (?v_14 (= x_49 5))) (let ((?v_308 (ite ?v_14 1 (+ x_49 1))) (?v_15 (= x_45 5))) (let ((?v_309 (ite ?v_15 1 (+ x_45 1))) (?v_16 (= x_48 5))) (let ((?v_310 (ite ?v_16 1 (+ x_48 1))) (?v_17 (= x_46 5))) (let ((?v_311 (ite ?v_17 1 (+ x_46 1))) (?v_18 (= x_47 5))) (let ((?v_312 (ite ?v_18 1 (+ x_47 1))) (?v_123 (= x_10 1)) (?v_5 (= x_24 5))) (let ((?v_76 (ite ?v_5 1 (+ x_24 1))) (?v_6 (= x_20 5))) (let ((?v_77 (ite ?v_6 1 (+ x_20 1))) (?v_7 (= x_23 5))) (let ((?v_78 (ite ?v_7 1 (+ x_23 1))) (?v_8 (= x_21 5))) (let ((?v_79 (ite ?v_8 1 (+ x_21 1))) (?v_9 (= x_22 5))) (let ((?v_80 (ite ?v_9 1 (+ x_22 1))) (?v_104 (= x_55 x_12)) (?v_105 (= x_56 x_13)) (?v_106 (= x_57 x_14)) (?v_107 (= x_58 x_15)) (?v_108 (= x_51 x_16)) (?v_165 (= x_45 x_16)) (?v_187 (= x_48 x_16)) (?v_94 (= x_33 x_5)) (?v_95 (= x_33 x_6)) (?v_96 (= x_33 x_7)) (?v_97 (= x_33 x_8)) (?v_98 (= x_33 x_9)) (?v_207 (= x_46 x_16)) (?v_227 (= x_47 x_16)) (?v_147 (= x_38 x_4)) (?v_148 (= x_47 x_22)) (?v_149 (= x_44 x_9)) (?v_110 (= x_34 x_0)) (?v_102 (= x_49 x_24)) (?v_111 (= x_39 x_5)) (?v_138 (= x_35 x_1)) (?v_139 (= x_45 x_20)) (?v_140 (= x_41 x_6)) (?v_141 (= x_36 x_2)) (?v_142 (= x_48 x_23)) (?v_143 (= x_42 x_7)) (?v_144 (= x_37 x_3)) (?v_145 (= x_46 x_21)) (?v_146 (= x_43 x_8)) (?v_125 (= x_49 x_16)) (?v_92 (and (and (and (and ?v_81 ?v_82) ?v_83) ?v_84) ?v_85)) (?v_114 (= x_53 false)) (?v_156 (= x_55 false)) (?v_179 (= x_56 false)) (?v_199 (= x_57 false)) (?v_219 (= x_58 false)) (?v_0 (= x_16 1)) (?v_274 (not x_17)) (?v_251 (not x_18))) (let ((?v_294 (and ?v_274 ?v_251)) (?v_252 (not x_19))) (let ((?v_234 (and ?v_294 ?v_252)) (?v_318 (and x_17 ?v_251)) (?v_320 (or x_17 x_18)) (?v_321 (or ?v_274 x_18))) (let ((?v_322 (and (and (and (and (and (or ?v_320 x_19) (or ?v_321 x_19)) (or (or x_17 ?v_251) x_19)) (or (or ?v_274 ?v_251) x_19)) (or ?v_320 ?v_252)) (or ?v_321 ?v_252))) (?v_86 (> x_5 0)) (?v_87 (> x_6 0)) (?v_88 (> x_7 0)) (?v_89 (> x_8 0)) (?v_90 (> x_9 0)) (?v_235 (and (and (and (and ?v_130 ?v_170) ?v_190) ?v_210) ?v_230)) (?v_298 (or ?v_25 ?v_27)) (?v_300 (or ?v_26 ?v_40)) (?v_302 (or ?v_31 ?v_44)) (?v_304 (or ?v_34 ?v_47)) (?v_306 (or ?v_37 ?v_50)) (?v_67 (and ?v_246 ?v_241)) (?v_68 (and ?v_247 ?v_242)) (?v_70 (and ?v_248 ?v_243)) (?v_71 (and ?v_249 ?v_244)) (?v_72 (and ?v_250 ?v_245)) (?v_21 (+ x_33 3)) (?v_42 (+ x_39 3)) (?v_43 (+ x_41 3)) (?v_46 (+ x_42 3)) (?v_49 (+ x_43 3)) (?v_52 (+ x_44 3)) (?v_66 (+ (+ x_39 (* (ite ?v_65 (- (- 1 x_49) 1) (- (+ (- 5 x_49) 1) 1)) 3)) x_26)) (?v_69 (+ (+ x_41 (* (ite (< x_45 2) (- (- 2 x_45) 1) (- (+ (- 5 x_45) 2) 1)) 3)) x_26)) (?v_73 (+ (+ x_42 (* (ite (< x_48 3) (- (- 3 x_48) 1) (- (+ (- 5 x_48) 3) 1)) 3)) x_26)) (?v_74 (+ (+ x_43 (* (ite (< x_46 4) (- (- 4 x_46) 1) (- (+ (- 5 x_46) 4) 1)) 3)) x_26)) (?v_75 (+ (+ x_44 (* (ite (< x_47 5) (- x_50 1) (- (+ x_50 5) 1)) 3)) x_26))) (let ((?v_295 (and (and (and (and (and (and (and (and (and (and (and (and (and (and (and (and ?v_235 (or (or (or (or ?v_19 ?v_20) ?v_22) ?v_23) ?v_24)) (or ?v_25 (<= x_39 ?v_21))) (or ?v_26 (<= x_41 ?v_21))) (or ?v_31 (<= x_42 ?v_21))) (or ?v_34 (<= x_43 ?v_21))) (or ?v_37 (<= x_44 ?v_21))) (or ?v_25 (and (and (and (and (or (or ?v_298 ?v_28) (and (= x_49 x_60) (= x_39 ?v_42))) (or ?v_26 (and (and (or (or ?v_27 ?v_40) (and ?v_29 (= x_39 x_41))) (or (or ?v_28 ?v_30) ?v_29)) (or (or ?v_27 ?v_30) (and (= x_49 x_61) (= x_39 ?v_43)))))) (or ?v_31 (and (and (or (or ?v_27 ?v_44) (and ?v_32 (= x_39 x_42))) (or (or ?v_28 ?v_33) ?v_32)) (or (or ?v_27 ?v_33) (and (= x_49 x_62) (= x_39 ?v_46)))))) (or ?v_34 (and (and (or (or ?v_27 ?v_47) (and ?v_35 (= x_39 x_43))) (or (or ?v_28 ?v_36) ?v_35)) (or (or ?v_27 ?v_36) (and (= x_49 x_63) (= x_39 ?v_49)))))) (or ?v_37 (and (and (or (or ?v_27 ?v_50) (and ?v_38 (= x_39 x_44))) (or (or ?v_28 ?v_39) ?v_38)) (or (or ?v_27 ?v_39) (and (= x_49 x_64) (= x_39 ?v_52)))))))) (or ?v_26 (and (and (and (and (or ?v_25 (and (and (or (or ?v_40 ?v_27) (and ?v_41 (= x_41 x_39))) (or (or ?v_30 ?v_28) ?v_41)) (or (or ?v_40 ?v_28) (and (= x_45 x_60) (= x_41 ?v_42))))) (or (or ?v_300 ?v_30) (and (= x_45 x_61) (= x_41 ?v_43)))) (or ?v_31 (and (and (or (or ?v_40 ?v_44) (and ?v_45 (= x_41 x_42))) (or (or ?v_30 ?v_33) ?v_45)) (or (or ?v_40 ?v_33) (and (= x_45 x_62) (= x_41 ?v_46)))))) (or ?v_34 (and (and (or (or ?v_40 ?v_47) (and ?v_48 (= x_41 x_43))) (or (or ?v_30 ?v_36) ?v_48)) (or (or ?v_40 ?v_36) (and (= x_45 x_63) (= x_41 ?v_49)))))) (or ?v_37 (and (and (or (or ?v_40 ?v_50) (and ?v_51 (= x_41 x_44))) (or (or ?v_30 ?v_39) ?v_51)) (or (or ?v_40 ?v_39) (and (= x_45 x_64) (= x_41 ?v_52)))))))) (or ?v_31 (and (and (and (and (or ?v_25 (and (and (or (or ?v_44 ?v_27) (and ?v_53 (= x_42 x_39))) (or (or ?v_33 ?v_28) ?v_53)) (or (or ?v_44 ?v_28) (and (= x_48 x_60) (= x_42 ?v_42))))) (or ?v_26 (and (and (or (or ?v_44 ?v_40) (and ?v_54 (= x_42 x_41))) (or (or ?v_33 ?v_30) ?v_54)) (or (or ?v_44 ?v_30) (and (= x_48 x_61) (= x_42 ?v_43)))))) (or (or ?v_302 ?v_33) (and (= x_48 x_62) (= x_42 ?v_46)))) (or ?v_34 (and (and (or (or ?v_44 ?v_47) (and ?v_55 (= x_42 x_43))) (or (or ?v_33 ?v_36) ?v_55)) (or (or ?v_44 ?v_36) (and (= x_48 x_63) (= x_42 ?v_49)))))) (or ?v_37 (and (and (or (or ?v_44 ?v_50) (and ?v_56 (= x_42 x_44))) (or (or ?v_33 ?v_39) ?v_56)) (or (or ?v_44 ?v_39) (and (= x_48 x_64) (= x_42 ?v_52)))))))) (or ?v_34 (and (and (and (and (or ?v_25 (and (and (or (or ?v_47 ?v_27) (and ?v_57 (= x_43 x_39))) (or (or ?v_36 ?v_28) ?v_57)) (or (or ?v_47 ?v_28) (and (= x_46 x_60) (= x_43 ?v_42))))) (or ?v_26 (and (and (or (or ?v_47 ?v_40) (and ?v_58 (= x_43 x_41))) (or (or ?v_36 ?v_30) ?v_58)) (or (or ?v_47 ?v_30) (and (= x_46 x_61) (= x_43 ?v_43)))))) (or ?v_31 (and (and (or (or ?v_47 ?v_44) (and ?v_59 (= x_43 x_42))) (or (or ?v_36 ?v_33) ?v_59)) (or (or ?v_47 ?v_33) (and (= x_46 x_62) (= x_43 ?v_46)))))) (or (or ?v_304 ?v_36) (and (= x_46 x_63) (= x_43 ?v_49)))) (or ?v_37 (and (and (or (or ?v_47 ?v_50) (and ?v_60 (= x_43 x_44))) (or (or ?v_36 ?v_39) ?v_60)) (or (or ?v_47 ?v_39) (and (= x_46 x_64) (= x_43 ?v_52)))))))) (or ?v_37 (and (and (and (and (or ?v_25 (and (and (or (or ?v_50 ?v_27) (and ?v_61 (= x_44 x_39))) (or (or ?v_39 ?v_28) ?v_61)) (or (or ?v_50 ?v_28) (and (= x_47 x_60) (= x_44 ?v_42))))) (or ?v_26 (and (and (or (or ?v_50 ?v_40) (and ?v_62 (= x_44 x_41))) (or (or ?v_39 ?v_30) ?v_62)) (or (or ?v_50 ?v_30) (and (= x_47 x_61) (= x_44 ?v_43)))))) (or ?v_31 (and (and (or (or ?v_50 ?v_44) (and ?v_63 (= x_44 x_42))) (or (or ?v_39 ?v_33) ?v_63)) (or (or ?v_50 ?v_33) (and (= x_47 x_62) (= x_44 ?v_46)))))) (or ?v_34 (and (and (or (or ?v_50 ?v_47) (and ?v_64 (= x_44 x_43))) (or (or ?v_39 ?v_36) ?v_64)) (or (or ?v_50 ?v_36) (and (= x_47 x_63) (= x_44 ?v_49)))))) (or (or ?v_306 ?v_39) (and (= x_47 x_64) (= x_44 ?v_52)))))) (or ?v_25 (and (and (and (and (or ?v_67 (not (<= x_39 ?v_66))) (or ?v_68 (not (<= x_41 ?v_66)))) (or ?v_70 (not (<= x_42 ?v_66)))) (or ?v_71 (not (<= x_43 ?v_66)))) (or ?v_72 (not (<= x_44 ?v_66)))))) (or ?v_26 (and (and (and (and (or ?v_67 (not (<= x_39 ?v_69))) (or ?v_68 (not (<= x_41 ?v_69)))) (or ?v_70 (not (<= x_42 ?v_69)))) (or ?v_71 (not (<= x_43 ?v_69)))) (or ?v_72 (not (<= x_44 ?v_69)))))) (or ?v_31 (and (and (and (and (or ?v_67 (not (<= x_39 ?v_73))) (or ?v_68 (not (<= x_41 ?v_73)))) (or ?v_70 (not (<= x_42 ?v_73)))) (or ?v_71 (not (<= x_43 ?v_73)))) (or ?v_72 (not (<= x_44 ?v_73)))))) (or ?v_34 (and (and (and (and (or ?v_67 (not (<= x_39 ?v_74))) (or ?v_68 (not (<= x_41 ?v_74)))) (or ?v_70 (not (<= x_42 ?v_74)))) (or ?v_71 (not (<= x_43 ?v_74)))) (or ?v_72 (not (<= x_44 ?v_74)))))) (or ?v_37 (and (and (and (and (or ?v_67 (not (<= x_39 ?v_75))) (or ?v_68 (not (<= x_41 ?v_75)))) (or ?v_70 (not (<= x_42 ?v_75)))) (or ?v_71 (not (<= x_43 ?v_75)))) (or ?v_72 (not (<= x_44 ?v_75))))))) (?v_91 (and (and (and (and ?v_86 ?v_87) ?v_88) ?v_89) ?v_90)) (?v_93 (and (and (and (and (<= x_33 x_5) (<= x_33 x_6)) (<= x_33 x_7)) (<= x_33 x_8)) (<= x_33 x_9))) (?v_233 (= x_33 0)) (?v_103 (and (= x_52 x_10) (= x_54 0)))) (let ((?v_152 (and ?v_103 (= x_53 x_11)))) (let ((?v_175 (and ?v_152 ?v_104))) (let ((?v_195 (and ?v_175 ?v_105))) (let ((?v_215 (and ?v_195 ?v_106)) (?v_109 (= x_40 0))) (let ((?v_101 (and (and (and ?v_215 ?v_107) ?v_108) ?v_109)) (?v_112 (= 0 x_5)) (?v_116 (= 0 0)) (?v_118 (and (and (and (and (and (and (and ?v_103 ?v_114) ?v_104) ?v_105) ?v_106) ?v_107) ?v_108) ?v_109)) (?v_117 (+ 0 15))) (let ((?v_121 (= x_39 ?v_117)) (?v_129 (= x_54 (ite ?v_92 (+ 0 x_26) 0)))) (let ((?v_155 (and (= x_52 (ite ?v_92 0 x_10)) ?v_129)) (?v_131 (= x_55 (or ?v_92 x_12))) (?v_132 (= x_56 (or ?v_92 x_13))) (?v_133 (= x_57 (or ?v_92 x_14))) (?v_134 (= x_58 (or ?v_92 x_15))) (?v_135 (= x_51 (ite ?v_92 1 x_16))) (?v_136 (= x_40 (ite ?v_92 0 0)))) (let ((?v_122 (and (and (and (and (and (and (and ?v_155 ?v_114) ?v_131) ?v_132) ?v_133) ?v_134) ?v_135) ?v_136)) (?v_126 (+ 0 3))) (let ((?v_160 (- ?v_126 x_26))) (let ((?v_124 (= x_39 ?v_160)) (?v_127 (and ?v_137 ?v_112)) (?v_128 (= x_39 ?v_126)) (?v_168 (= x_52 (ite ?v_92 1 x_10))) (?v_153 (= 0 x_6)) (?v_159 (and (and (and (and (and (and ?v_152 ?v_156) ?v_105) ?v_106) ?v_107) ?v_108) ?v_109)) (?v_158 (+ 0 18))) (let ((?v_162 (= x_41 ?v_158)) (?v_169 (= x_53 (or ?v_92 x_11)))) (let ((?v_178 (and ?v_155 ?v_169)) (?v_171 (= x_51 (ite ?v_92 2 x_16)))) (let ((?v_163 (and (and (and (and (and (and ?v_178 ?v_156) ?v_132) ?v_133) ?v_134) ?v_171) ?v_136)) (?v_164 (= x_41 ?v_160)) (?v_166 (and ?v_172 ?v_153)) (?v_167 (= x_41 ?v_126)) (?v_176 (= 0 x_7)) (?v_182 (and (and (and (and (and ?v_175 ?v_179) ?v_106) ?v_107) ?v_108) ?v_109)) (?v_181 (+ 0 21))) (let ((?v_184 (= x_42 ?v_181)) (?v_198 (and ?v_178 ?v_131)) (?v_191 (= x_51 (ite ?v_92 3 x_16)))) (let ((?v_185 (and (and (and (and (and ?v_198 ?v_179) ?v_133) ?v_134) ?v_191) ?v_136)) (?v_186 (= x_42 ?v_160)) (?v_188 (and ?v_192 ?v_176)) (?v_189 (= x_42 ?v_126)) (?v_196 (= 0 x_8)) (?v_202 (and (and (and (and ?v_195 ?v_199) ?v_107) ?v_108) ?v_109)) (?v_201 (+ 0 24))) (let ((?v_204 (= x_43 ?v_201)) (?v_218 (and ?v_198 ?v_132)) (?v_211 (= x_51 (ite ?v_92 4 x_16)))) (let ((?v_205 (and (and (and (and ?v_218 ?v_199) ?v_134) ?v_211) ?v_136)) (?v_206 (= x_43 ?v_160)) (?v_208 (and ?v_212 ?v_196)) (?v_209 (= x_43 ?v_126)) (?v_216 (= 0 x_9)) (?v_222 (and (and (and ?v_215 ?v_219) ?v_108) ?v_109)) (?v_221 (+ 0 27))) (let ((?v_224 (= x_44 ?v_221)) (?v_231 (= x_51 (ite ?v_92 5 x_16)))) (let ((?v_225 (and (and (and (and ?v_218 ?v_133) ?v_219) ?v_231) ?v_136)) (?v_226 (= x_44 ?v_160)) (?v_228 (and ?v_232 ?v_216)) (?v_229 (= x_44 ?v_126)) (?v_236 (or (= x_34 0) ?v_100)) (?v_237 (or (= x_35 0) ?v_151)) (?v_238 (or (= x_36 0) ?v_174)) (?v_239 (or (= x_37 0) ?v_194)) (?v_240 (or (= x_38 0) ?v_214)) (?v_276 (and (and ?v_296 (= x_52 0)) (= x_59 2)))) (let ((?v_254 (or ?v_236 ?v_113)) (?v_255 (or ?v_237 ?v_154)) (?v_256 (or ?v_238 ?v_177)) (?v_257 (or ?v_239 ?v_197)) (?v_258 (or ?v_240 ?v_217))) (let ((?v_253 (and (and (and (and (and (and (and (and (and (and (and (and (and (and (and ?v_276 ?v_254) ?v_255) ?v_256) ?v_257) ?v_258) (or ?v_241 (and (and ?v_130 ?v_277) ?v_259))) (or ?v_242 (and (and ?v_170 ?v_278) ?v_260))) (or ?v_243 (and (and ?v_190 ?v_279) ?v_261))) (or ?v_244 (and (and ?v_210 ?v_280) ?v_262))) (or ?v_245 (and (and ?v_230 ?v_281) ?v_263))) (or (or ?v_246 x_53) ?v_283)) (or (or ?v_247 x_55) ?v_285)) (or (or ?v_248 x_56) ?v_287)) (or (or ?v_249 x_57) ?v_289)) (or (or ?v_250 x_58) ?v_291))) (?v_275 (and (and (and (and (and (and (and (and (and (and (and (and (and (and (and (and (and (and (and (and ?v_235 (or (or (or (or ?v_113 ?v_154) ?v_177) ?v_197) ?v_217)) ?v_254) ?v_255) ?v_256) ?v_257) ?v_258) (or ?v_241 ?v_259)) (or ?v_242 ?v_260)) (or ?v_243 ?v_261)) (or ?v_244 ?v_262)) (or ?v_245 ?v_263)) (or ?v_241 (and (and (and (or ?v_242 ?v_264) (or ?v_243 ?v_265)) (or ?v_244 ?v_266)) (or ?v_245 ?v_267)))) (or ?v_242 (and (and (or ?v_243 ?v_268) (or ?v_244 ?v_269)) (or ?v_245 ?v_270)))) (or ?v_243 (and (or ?v_244 ?v_271) (or ?v_245 ?v_272)))) (or (or ?v_244 ?v_245) ?v_273)) (or ?v_241 (and (and (and (and (or ?v_246 (not (<= (- x_39 x_39) x_26))) (or ?v_247 ?v_264)) (or ?v_248 ?v_265)) (or ?v_249 ?v_266)) (or ?v_250 ?v_267)))) (or ?v_242 (and (and (and (and (or ?v_246 (not (<= (- x_39 x_41) x_26))) (or ?v_247 (not (<= (- x_41 x_41) x_26)))) (or ?v_248 ?v_268)) (or ?v_249 ?v_269)) (or ?v_250 ?v_270)))) (or ?v_243 (and (and (and (and (or ?v_246 (not (<= (- x_39 x_42) x_26))) (or ?v_247 (not (<= (- x_41 x_42) x_26)))) (or ?v_248 (not (<= (- x_42 x_42) x_26)))) (or ?v_249 ?v_271)) (or ?v_250 ?v_272)))) (or ?v_244 (and (and (and (and (or ?v_246 (not (<= (- x_39 x_43) x_26))) (or ?v_247 (not (<= (- x_41 x_43) x_26)))) (or ?v_248 (not (<= (- x_42 x_43) x_26)))) (or ?v_249 (not (<= (- x_43 x_43) x_26)))) (or ?v_250 ?v_273)))) (or ?v_245 (and (and (and (and (or ?v_246 (not (<= (- x_39 x_44) x_26))) (or ?v_247 (not (<= (- x_41 x_44) x_26)))) (or ?v_248 (not (<= (- x_42 x_44) x_26)))) (or ?v_249 (not (<= (- x_43 x_44) x_26)))) (or ?v_250 (not (<= (- x_44 x_44) x_26))))))) (?v_313 (or (or ?v_246 ?v_282) ?v_283)) (?v_314 (or (or ?v_247 ?v_284) ?v_285)) (?v_315 (or (or ?v_248 ?v_286) ?v_287)) (?v_316 (or (or ?v_249 ?v_288) ?v_289)) (?v_317 (or (or ?v_250 ?v_290) ?v_291)) (?v_292 (+ x_40 3))) (let ((?v_293 (and (and (and (and (and (and (and (and (and (and (and (and (and (and (and (and (and ?v_276 (= ?v_297 (+ (+ x_40 (* (- x_51 1) 3)) 15))) (not (ite ?v_10 x_58 (ite ?v_11 x_57 (ite ?v_12 x_56 (ite ?v_13 x_55 x_53)))))) (or (or (or ?v_241 (= 1 x_51)) ?v_282) (and ?v_277 ?v_259))) (or (or (or ?v_242 (= 2 x_51)) ?v_284) (and ?v_278 ?v_260))) (or (or (or ?v_243 (= 3 x_51)) ?v_286) (and ?v_279 ?v_261))) (or (or (or ?v_244 (= 4 x_51)) ?v_288) (and ?v_280 ?v_262))) (or (or (or ?v_245 (= 5 x_51)) ?v_290) (and ?v_281 ?v_263))) ?v_313) ?v_314) ?v_315) ?v_316) ?v_317) (or ?v_25 (and ?v_299 (= x_39 ?v_292)))) (or ?v_26 (and ?v_301 (= x_41 ?v_292)))) (or ?v_31 (and ?v_303 (= x_42 ?v_292)))) (or ?v_34 (and ?v_305 (= x_43 ?v_292)))) (or ?v_37 (and ?v_307 (= x_44 ?v_292))))) (?v_319 (and (and (and (and (and (and (and (and (and (and (and (and (and (and (and (and (and (and (and (and (and (and (and (and ?v_296 (= x_52 1)) (= x_59 3)) (= (ite ?v_10 x_47 (ite ?v_11 x_46 (ite ?v_12 x_48 (ite ?v_13 x_45 x_49)))) x_51)) (= ?v_297 ?v_292)) (or ?v_298 (and ?v_299 (= x_39 ?v_297)))) (or ?v_300 (and ?v_301 (= x_41 ?v_297)))) (or ?v_302 (and ?v_303 (= x_42 ?v_297)))) (or ?v_304 (and ?v_305 (= x_43 ?v_297)))) (or ?v_306 (and ?v_307 (= x_44 ?v_297)))) (or (or ?v_25 ?v_28) (and (= ?v_308 x_51) (= ?v_297 ?v_42)))) (or (or ?v_26 ?v_30) (and (= ?v_309 x_51) (= ?v_297 ?v_43)))) (or (or ?v_31 ?v_33) (and (= ?v_310 x_51) (= ?v_297 ?v_46)))) (or (or ?v_34 ?v_36) (and (= ?v_311 x_51) (= ?v_297 ?v_49)))) (or (or ?v_37 ?v_39) (and (= ?v_312 x_51) (= ?v_297 ?v_52)))) ?v_313) ?v_314) ?v_315) ?v_316) ?v_317) (or ?v_241 ?v_282)) (or ?v_242 ?v_284)) (or ?v_243 ?v_286)) (or ?v_244 ?v_288)) (or ?v_245 ?v_290)))) (and (and (and (and (and (and (and (and (and (and (and (and (and (and (and (and (and (and (and (and (and (and (and (and (and (and (and (and (and (and (and (and (and (and (and (and (and (and (and (and (and (and (and (and (and (and (and (and (and (and (and (and (and (and (and (and (and (and (and (and (and (and (and (and (and (and (and (and (and (and (and (and (and (and (and (and (and (and (and (and (and (and (and (and (and (and (and (and (and (and (and (and (and (and (and (and (and (and (and (and (and (and (and (and (and (and (and (and (and (and (and (and (and (and (and (and (<= x_71 6) (>= x_71 0)) (<= x_65 6)) (>= x_65 0)) (<= x_59 3)) (>= x_59 0)) (<= x_52 1)) (>= x_52 0)) (<= x_38 3)) (>= x_38 0)) (<= x_37 3)) (>= x_37 0)) (<= x_36 3)) (>= x_36 0)) (<= x_35 3)) (>= x_35 0)) (<= x_34 3)) (>= x_34 0)) (<= x_27 3)) (>= x_27 0)) (<= x_10 1)) (>= x_10 0)) (<= x_4 3)) (>= x_4 0)) (<= x_3 3)) (>= x_3 0)) (<= x_2 3)) (>= x_2 0)) (<= x_1 3)) (>= x_1 0)) (<= x_0 3)) (>= x_0 0)) (or (or (or (or ?v_0 ?v_4) ?v_3) ?v_2) ?v_1)) (not (< x_16 1))) (<= x_16 5)) (or (or (or (or (= x_20 1) (= x_20 2)) (= x_20 3)) (= x_20 4)) ?v_6)) (not (< x_20 1))) (<= x_20 5)) (or (or (or (or (= x_21 1) (= x_21 2)) (= x_21 3)) (= x_21 4)) ?v_8)) (not (< x_21 1))) (<= x_21 5)) (or (or (or (or (= x_22 1) (= x_22 2)) (= x_22 3)) (= x_22 4)) ?v_9)) (not (< x_22 1))) (<= x_22 5)) (or (or (or (or (= x_23 1) (= x_23 2)) (= x_23 3)) (= x_23 4)) ?v_7)) (not (< x_23 1))) (<= x_23 5)) (or (or (or (or (= x_24 1) (= x_24 2)) (= x_24 3)) (= x_24 4)) ?v_5)) (not (< x_24 1))) (<= x_24 5)) (> x_26 0)) (< x_26 (/ 3 2))) (or (or (or (or (= x_45 1) (= x_45 2)) (= x_45 3)) (= x_45 4)) ?v_15)) (not (< x_45 1))) (<= x_45 5)) (or (or (or (or (= x_46 1) (= x_46 2)) (= x_46 3)) (= x_46 4)) ?v_17)) (not (< x_46 1))) (<= x_46 5)) (or (or (or (or (= x_47 1) (= x_47 2)) (= x_47 3)) (= x_47 4)) ?v_18)) (not (< x_47 1))) (<= x_47 5)) (or (or (or (or (= x_48 1) (= x_48 2)) (= x_48 3)) (= x_48 4)) ?v_16)) (not (< x_48 1))) (<= x_48 5)) (or (or (or (or (= x_49 1) (= x_49 2)) (= x_49 3)) (= x_49 4)) ?v_14)) (not ?v_65)) (<= x_49 5)) (or (or (or (or (= x_51 1) ?v_13) ?v_12) ?v_11) ?v_10)) (not (< x_51 1))) (<= x_51 5)) ?v_99) ?v_150) ?v_173) ?v_193) ?v_213) ?v_86) (< x_5 30)) ?v_87) (< x_6 30)) ?v_88) (< x_7 30)) ?v_89) (< x_8 30)) ?v_90) (< x_9 30)) ?v_123) ?v_81) ?v_82) ?v_83) ?v_84) ?v_85) ?v_0) ?v_234) (= x_25 (- 5 x_22))) (= x_27 (ite ?v_1 x_4 (ite ?v_2 x_3 (ite ?v_3 x_2 (ite ?v_4 x_1 x_0)))))) (= x_28 ?v_76)) (= x_29 ?v_77)) (= x_30 ?v_78)) (= x_31 ?v_79)) (= x_32 ?v_80)) (= x_50 (- 5 x_47))) (= x_59 (ite ?v_10 x_38 (ite ?v_11 x_37 (ite ?v_12 x_36 (ite ?v_13 x_35 x_34)))))) (= x_60 ?v_308)) (= x_61 ?v_309)) (= x_62 ?v_310)) (= x_63 ?v_311)) (= x_64 ?v_312)) (= x_65 (ite ?v_295 4 6))) (= x_66 ?v_76)) (= x_67 ?v_77)) (= x_68 ?v_78)) (= x_69 ?v_79)) (= x_70 ?v_80)) (or (and (and (and (and (and (and (and (and (and (and (and (and (and (and (and (and (and (ite ?v_92 ?v_91 (and ?v_91 (> 0 0))) (ite ?v_92 (and ?v_93 (or (or (or (or ?v_94 ?v_95) ?v_96) ?v_97) ?v_98)) (and (and ?v_93 (<= x_33 0)) (or (or (or (or (or ?v_233 ?v_94) ?v_95) ?v_96) ?v_97) ?v_98)))) ?v_110) ?v_138) ?v_141) ?v_144) ?v_147) ?v_102) ?v_139) ?v_142) ?v_145) ?v_148) ?v_111) ?v_140) ?v_143) ?v_146) ?v_149) ?v_101) (and (or (or (or (or (and (and (and (and (and (and (and (and (and (and (and (and (or (or (or (or (or (or (or (or (or (and (and (and (and (and ?v_99 ?v_112) ?v_100) (= x_39 (+ 0 30))) ?v_101) ?v_102) (and (and (and (and (and (and ?v_99 x_11) ?v_116) ?v_118) ?v_110) ?v_102) ?v_111)) (and (and (and (and (and ?v_115 ?v_112) ?v_113) ?v_121) ?v_122) ?v_102)) (and (and (and (and (and (and (and ?v_115 x_11) ?v_119) ?v_116) ?v_113) (= x_39 (- ?v_117 x_26))) ?v_118) ?v_102)) (and (and (and (and (and (and (and ?v_120 x_11) ?v_119) ?v_116) ?v_19) ?v_124) ?v_125) ?v_118)) (and (and (and (and (and ?v_120 ?v_112) ?v_121) ?v_122) ?v_110) ?v_102)) (and (and (and (and (and (and (and (or ?v_115 ?v_120) x_11) ?v_123) ?v_116) ?v_19) ?v_124) ?v_125) ?v_118)) (and (and (and (and (and ?v_127 (not (= ?v_76 1))) ?v_128) (= x_49 x_66)) ?v_101) ?v_110)) (and (and (and (and (and (and (and (and (and (and (and (and (and ?v_127 (= x_66 1)) ?v_128) (= x_49 ?v_76)) ?v_168) ?v_129) ?v_130) ?v_131) ?v_132) ?v_133) ?v_134) ?v_135) ?v_136) ?v_110)) (and (and (and (and (and (and (and ?v_137 x_11) ?v_123) ?v_116) ?v_118) ?v_110) ?v_102) ?v_111)) ?v_138) ?v_139) ?v_140) ?v_141) ?v_142) ?v_143) ?v_144) ?v_145) ?v_146) ?v_147) ?v_148) ?v_149) (and (and (and (and (and (and (and (and (and (and (and (and (or (or (or (or (or (or (or (or (or (and (and (and (and (and ?v_150 ?v_153) ?v_151) (= x_41 (+ 0 33))) ?v_101) ?v_139) (and (and (and (and (and (and ?v_150 x_12) ?v_116) ?v_159) ?v_138) ?v_139) ?v_140)) (and (and (and (and (and ?v_157 ?v_153) ?v_154) ?v_162) ?v_163) ?v_139)) (and (and (and (and (and (and (and ?v_157 x_12) ?v_119) ?v_116) ?v_154) (= x_41 (- ?v_158 x_26))) ?v_159) ?v_139)) (and (and (and (and (and (and (and ?v_161 x_12) ?v_119) ?v_116) ?v_20) ?v_164) ?v_165) ?v_159)) (and (and (and (and (and ?v_161 ?v_153) ?v_162) ?v_163) ?v_138) ?v_139)) (and (and (and (and (and (and (and (or ?v_157 ?v_161) x_12) ?v_123) ?v_116) ?v_20) ?v_164) ?v_165) ?v_159)) (and (and (and (and (and ?v_166 (not (= ?v_77 2))) ?v_167) (= x_45 x_67)) ?v_101) ?v_138)) (and (and (and (and (and (and (and (and (and (and (and (and (and ?v_166 (= x_67 2)) ?v_167) (= x_45 ?v_77)) ?v_168) ?v_129) ?v_169) ?v_170) ?v_132) ?v_133) ?v_134) ?v_171) ?v_136) ?v_138)) (and (and (and (and (and (and (and ?v_172 x_12) ?v_123) ?v_116) ?v_159) ?v_138) ?v_139) ?v_140)) ?v_110) ?v_102) ?v_111) ?v_141) ?v_142) ?v_143) ?v_144) ?v_145) ?v_146) ?v_147) ?v_148) ?v_149)) (and (and (and (and (and (and (and (and (and (and (and (and (or (or (or (or (or (or (or (or (or (and (and (and (and (and ?v_173 ?v_176) ?v_174) (= x_42 (+ 0 36))) ?v_101) ?v_142) (and (and (and (and (and (and ?v_173 x_13) ?v_116) ?v_182) ?v_141) ?v_142) ?v_143)) (and (and (and (and (and ?v_180 ?v_176) ?v_177) ?v_184) ?v_185) ?v_142)) (and (and (and (and (and (and (and ?v_180 x_13) ?v_119) ?v_116) ?v_177) (= x_42 (- ?v_181 x_26))) ?v_182) ?v_142)) (and (and (and (and (and (and (and ?v_183 x_13) ?v_119) ?v_116) ?v_22) ?v_186) ?v_187) ?v_182)) (and (and (and (and (and ?v_183 ?v_176) ?v_184) ?v_185) ?v_141) ?v_142)) (and (and (and (and (and (and (and (or ?v_180 ?v_183) x_13) ?v_123) ?v_116) ?v_22) ?v_186) ?v_187) ?v_182)) (and (and (and (and (and ?v_188 (not (= ?v_78 3))) ?v_189) (= x_48 x_68)) ?v_101) ?v_141)) (and (and (and (and (and (and (and (and (and (and (and (and (and ?v_188 (= x_68 3)) ?v_189) (= x_48 ?v_78)) ?v_168) ?v_129) ?v_169) ?v_131) ?v_190) ?v_133) ?v_134) ?v_191) ?v_136) ?v_141)) (and (and (and (and (and (and (and ?v_192 x_13) ?v_123) ?v_116) ?v_182) ?v_141) ?v_142) ?v_143)) ?v_110) ?v_102) ?v_111) ?v_138) ?v_139) ?v_140) ?v_144) ?v_145) ?v_146) ?v_147) ?v_148) ?v_149)) (and (and (and (and (and (and (and (and (and (and (and (and (or (or (or (or (or (or (or (or (or (and (and (and (and (and ?v_193 ?v_196) ?v_194) (= x_43 (+ 0 39))) ?v_101) ?v_145) (and (and (and (and (and (and ?v_193 x_14) ?v_116) ?v_202) ?v_144) ?v_145) ?v_146)) (and (and (and (and (and ?v_200 ?v_196) ?v_197) ?v_204) ?v_205) ?v_145)) (and (and (and (and (and (and (and ?v_200 x_14) ?v_119) ?v_116) ?v_197) (= x_43 (- ?v_201 x_26))) ?v_202) ?v_145)) (and (and (and (and (and (and (and ?v_203 x_14) ?v_119) ?v_116) ?v_23) ?v_206) ?v_207) ?v_202)) (and (and (and (and (and ?v_203 ?v_196) ?v_204) ?v_205) ?v_144) ?v_145)) (and (and (and (and (and (and (and (or ?v_200 ?v_203) x_14) ?v_123) ?v_116) ?v_23) ?v_206) ?v_207) ?v_202)) (and (and (and (and (and ?v_208 (not (= ?v_79 4))) ?v_209) (= x_46 x_69)) ?v_101) ?v_144)) (and (and (and (and (and (and (and (and (and (and (and (and (and ?v_208 (= x_69 4)) ?v_209) (= x_46 ?v_79)) ?v_168) ?v_129) ?v_169) ?v_131) ?v_132) ?v_210) ?v_134) ?v_211) ?v_136) ?v_144)) (and (and (and (and (and (and (and ?v_212 x_14) ?v_123) ?v_116) ?v_202) ?v_144) ?v_145) ?v_146)) ?v_110) ?v_102) ?v_111) ?v_138) ?v_139) ?v_140) ?v_141) ?v_142) ?v_143) ?v_147) ?v_148) ?v_149)) (and (and (and (and (and (and (and (and (and (and (and (and (or (or (or (or (or (or (or (or (or (and (and (and (and (and ?v_213 ?v_216) ?v_214) (= x_44 (+ 0 42))) ?v_101) ?v_148) (and (and (and (and (and (and ?v_213 x_15) ?v_116) ?v_222) ?v_147) ?v_148) ?v_149)) (and (and (and (and (and ?v_220 ?v_216) ?v_217) ?v_224) ?v_225) ?v_148)) (and (and (and (and (and (and (and ?v_220 x_15) ?v_119) ?v_116) ?v_217) (= x_44 (- ?v_221 x_26))) ?v_222) ?v_148)) (and (and (and (and (and (and (and ?v_223 x_15) ?v_119) ?v_116) ?v_24) ?v_226) ?v_227) ?v_222)) (and (and (and (and (and ?v_223 ?v_216) ?v_224) ?v_225) ?v_147) ?v_148)) (and (and (and (and (and (and (and (or ?v_220 ?v_223) x_15) ?v_123) ?v_116) ?v_24) ?v_226) ?v_227) ?v_222)) (and (and (and (and (and ?v_228 (not (= ?v_80 5))) ?v_229) (= x_47 x_70)) ?v_101) ?v_147)) (and (and (and (and (and (and (and (and (and (and (and (and (and ?v_228 (= x_70 5)) ?v_229) (= x_47 ?v_80)) ?v_168) ?v_129) ?v_169) ?v_131) ?v_132) ?v_133) ?v_230) ?v_231) ?v_136) ?v_147)) (and (and (and (and (and (and (and ?v_232 x_15) ?v_123) ?v_116) ?v_222) ?v_147) ?v_148) ?v_149)) ?v_110) ?v_102) ?v_111) ?v_138) ?v_139) ?v_140) ?v_141) ?v_142) ?v_143) ?v_144) ?v_145) ?v_146)) ?v_233))) (or (or (or (or (or (or (and ?v_234 (= x_71 (ite (and (and (and (and (and ?v_235 ?v_236) ?v_237) ?v_238) ?v_239) ?v_240) 0 (ite ?v_253 1 6)))) (and (and ?v_318 ?v_252) (= x_71 (ite ?v_253 1 (ite ?v_275 2 6))))) (and (and (and ?v_274 x_18) ?v_252) (= x_71 (ite ?v_275 2 (ite ?v_293 3 6))))) (and (and (and x_17 x_18) ?v_252) (= x_71 (ite ?v_293 3 (ite ?v_275 2 x_65))))) (and (and ?v_294 x_19) (= x_71 (ite ?v_295 4 (ite ?v_319 5 6))))) (and (and ?v_318 x_19) (= x_71 (ite ?v_319 5 x_65)))) (and ?v_322 (= x_71 6)))) (or (and (and (and (and (and (not (= x_71 0)) (not (= x_71 1))) (not (= x_71 2))) (not (= x_71 3))) (not (= x_71 4))) (not (= x_71 5))) ?v_322)) (or (or ?v_252 ?v_251) ?v_274))))))))))))))))))))))))))))))))))))))))))))))))))))
(check-sat)
(exit)
